(set-option :produce-models true)
(set-logic QF_LRA)
(set-info :notes | Strip-packing problem.|)
(declare-fun x0 () Real)
(declare-fun y0 () Real)
(declare-fun x1 () Real)
(declare-fun y1 () Real)
(declare-fun x2 () Real)
(declare-fun y2 () Real)
(declare-fun x3 () Real)
(declare-fun y3 () Real)
(declare-fun x4 () Real)
(declare-fun y4 () Real)
(declare-fun x5 () Real)
(declare-fun y5 () Real)
(declare-fun x6 () Real)
(declare-fun y6 () Real)
(declare-fun x7 () Real)
(declare-fun y7 () Real)
(declare-fun x8 () Real)
(declare-fun y8 () Real)
(declare-fun z () Real)
(declare-fun c () Real)
(assert (and (= c z) (and (>= x0 0) 
(and (>= y0 0) 
(and (>= x1 0) 
(and (>= y1 0) 
(and (>= x2 0) 
(and (>= y2 0) 
(and (>= x3 0) 
(and (>= y3 0) 
(and (>= x4 0) 
(and (>= y4 0) 
(and (>= x5 0) 
(and (>= y5 0) 
(and (>= x6 0) 
(and (>= y6 0) 
(and (>= x7 0) 
(and (>= y7 0) 
(and (>= x8 0) 
(and (>= y8 0) 
(and (>= z 0) 
(and (>= c 0) 
(and (<= (+ x0 0.3201039238) z) 
(and (<= 0.9894254511 y0) 
(and (<= y0 1.5) 
(and (<= x0 (- 1.9829533873 0.3201039238)) 
(and (>= x0 0) 
(and (<= (+ x1 0.0542563911) z) 
(and (<= 0.9772414257 y1) 
(and (<= y1 1.5) 
(and (<= x1 (- 1.9829533873 0.0542563911)) 
(and (>= x1 0) 
(and (<= (+ x2 0.1716881284) z) 
(and (<= 0.621737931 y2) 
(and (<= y2 1.5) 
(and (<= x2 (- 1.9829533873 0.1716881284)) 
(and (>= x2 0) 
(and (<= (+ x3 0.1934420548) z) 
(and (<= 0.4639472492 y3) 
(and (<= y3 1.5) 
(and (<= x3 (- 1.9829533873 0.1934420548)) 
(and (>= x3 0) 
(and (<= (+ x4 0.6610904188) z) 
(and (<= 0.3302668841 y4) 
(and (<= y4 1.5) 
(and (<= x4 (- 1.9829533873 0.6610904188)) 
(and (>= x4 0) 
(and (<= (+ x5 0.153083054) z) 
(and (<= 0.2856268136 y5) 
(and (<= y5 1.5) 
(and (<= x5 (- 1.9829533873 0.153083054)) 
(and (>= x5 0) 
(and (<= (+ x6 0.2387093517) z) 
(and (<= 0.2713767247 y6) 
(and (<= y6 1.5) 
(and (<= x6 (- 1.9829533873 0.2387093517)) 
(and (>= x6 0) 
(and (<= (+ x7 0.0310145244) z) 
(and (<= 0.1072268819 y7) 
(and (<= y7 1.5) 
(and (<= x7 (- 1.9829533873 0.0310145244)) 
(and (>= x7 0) 
(and (<= (+ x8 0.7758145252) z) 
(and (<= 0.0673597034 y8) 
(and (<= y8 1.5) 
(and (<= x8 (- 1.9829533873 0.7758145252)) 
(and (>= x8 0) 
(and (<= c 1.9829533873) 
(and (or (<= (+ x0 0.3201039238) x1) (or (<= (+ x1 0.0542563911) x0) (or (>= (- y0 0.9894254511) y1) (or (>= (- y1 0.9772414257) y0))))) 
(and (or (<= (+ x0 0.3201039238) x2) (or (<= (+ x2 0.1716881284) x0) (or (>= (- y0 0.9894254511) y2) (or (>= (- y2 0.621737931) y0))))) 
(and (or (<= (+ x0 0.3201039238) x3) (or (<= (+ x3 0.1934420548) x0) (or (>= (- y0 0.9894254511) y3) (or (>= (- y3 0.4639472492) y0))))) 
(and (or (<= (+ x0 0.3201039238) x4) (or (<= (+ x4 0.6610904188) x0) (or (>= (- y0 0.9894254511) y4) (or (>= (- y4 0.3302668841) y0))))) 
(and (or (<= (+ x0 0.3201039238) x5) (or (<= (+ x5 0.153083054) x0) (or (>= (- y0 0.9894254511) y5) (or (>= (- y5 0.2856268136) y0))))) 
(and (or (<= (+ x0 0.3201039238) x6) (or (<= (+ x6 0.2387093517) x0) (or (>= (- y0 0.9894254511) y6) (or (>= (- y6 0.2713767247) y0))))) 
(and (or (<= (+ x0 0.3201039238) x7) (or (<= (+ x7 0.0310145244) x0) (or (>= (- y0 0.9894254511) y7) (or (>= (- y7 0.1072268819) y0))))) 
(and (or (<= (+ x0 0.3201039238) x8) (or (<= (+ x8 0.7758145252) x0) (or (>= (- y0 0.9894254511) y8) (or (>= (- y8 0.0673597034) y0))))) 
(and (or (<= (+ x1 0.0542563911) x2) (or (<= (+ x2 0.1716881284) x1) (or (>= (- y1 0.9772414257) y2) (or (>= (- y2 0.621737931) y1))))) 
(and (or (<= (+ x1 0.0542563911) x3) (or (<= (+ x3 0.1934420548) x1) (or (>= (- y1 0.9772414257) y3) (or (>= (- y3 0.4639472492) y1))))) 
(and (or (<= (+ x1 0.0542563911) x4) (or (<= (+ x4 0.6610904188) x1) (or (>= (- y1 0.9772414257) y4) (or (>= (- y4 0.3302668841) y1))))) 
(and (or (<= (+ x1 0.0542563911) x5) (or (<= (+ x5 0.153083054) x1) (or (>= (- y1 0.9772414257) y5) (or (>= (- y5 0.2856268136) y1))))) 
(and (or (<= (+ x1 0.0542563911) x6) (or (<= (+ x6 0.2387093517) x1) (or (>= (- y1 0.9772414257) y6) (or (>= (- y6 0.2713767247) y1))))) 
(and (or (<= (+ x1 0.0542563911) x7) (or (<= (+ x7 0.0310145244) x1) (or (>= (- y1 0.9772414257) y7) (or (>= (- y7 0.1072268819) y1))))) 
(and (or (<= (+ x1 0.0542563911) x8) (or (<= (+ x8 0.7758145252) x1) (or (>= (- y1 0.9772414257) y8) (or (>= (- y8 0.0673597034) y1))))) 
(and (or (<= (+ x2 0.1716881284) x3) (or (<= (+ x3 0.1934420548) x2) (or (>= (- y2 0.621737931) y3) (or (>= (- y3 0.4639472492) y2))))) 
(and (or (<= (+ x2 0.1716881284) x4) (or (<= (+ x4 0.6610904188) x2) (or (>= (- y2 0.621737931) y4) (or (>= (- y4 0.3302668841) y2))))) 
(and (or (<= (+ x2 0.1716881284) x5) (or (<= (+ x5 0.153083054) x2) (or (>= (- y2 0.621737931) y5) (or (>= (- y5 0.2856268136) y2))))) 
(and (or (<= (+ x2 0.1716881284) x6) (or (<= (+ x6 0.2387093517) x2) (or (>= (- y2 0.621737931) y6) (or (>= (- y6 0.2713767247) y2))))) 
(and (or (<= (+ x2 0.1716881284) x7) (or (<= (+ x7 0.0310145244) x2) (or (>= (- y2 0.621737931) y7) (or (>= (- y7 0.1072268819) y2))))) 
(and (or (<= (+ x2 0.1716881284) x8) (or (<= (+ x8 0.7758145252) x2) (or (>= (- y2 0.621737931) y8) (or (>= (- y8 0.0673597034) y2))))) 
(and (or (<= (+ x3 0.1934420548) x4) (or (<= (+ x4 0.6610904188) x3) (or (>= (- y3 0.4639472492) y4) (or (>= (- y4 0.3302668841) y3))))) 
(and (or (<= (+ x3 0.1934420548) x5) (or (<= (+ x5 0.153083054) x3) (or (>= (- y3 0.4639472492) y5) (or (>= (- y5 0.2856268136) y3))))) 
(and (or (<= (+ x3 0.1934420548) x6) (or (<= (+ x6 0.2387093517) x3) (or (>= (- y3 0.4639472492) y6) (or (>= (- y6 0.2713767247) y3))))) 
(and (or (<= (+ x3 0.1934420548) x7) (or (<= (+ x7 0.0310145244) x3) (or (>= (- y3 0.4639472492) y7) (or (>= (- y7 0.1072268819) y3))))) 
(and (or (<= (+ x3 0.1934420548) x8) (or (<= (+ x8 0.7758145252) x3) (or (>= (- y3 0.4639472492) y8) (or (>= (- y8 0.0673597034) y3))))) 
(and (or (<= (+ x4 0.6610904188) x5) (or (<= (+ x5 0.153083054) x4) (or (>= (- y4 0.3302668841) y5) (or (>= (- y5 0.2856268136) y4))))) 
(and (or (<= (+ x4 0.6610904188) x6) (or (<= (+ x6 0.2387093517) x4) (or (>= (- y4 0.3302668841) y6) (or (>= (- y6 0.2713767247) y4))))) 
(and (or (<= (+ x4 0.6610904188) x7) (or (<= (+ x7 0.0310145244) x4) (or (>= (- y4 0.3302668841) y7) (or (>= (- y7 0.1072268819) y4))))) 
(and (or (<= (+ x4 0.6610904188) x8) (or (<= (+ x8 0.7758145252) x4) (or (>= (- y4 0.3302668841) y8) (or (>= (- y8 0.0673597034) y4))))) 
(and (or (<= (+ x5 0.153083054) x6) (or (<= (+ x6 0.2387093517) x5) (or (>= (- y5 0.2856268136) y6) (or (>= (- y6 0.2713767247) y5))))) 
(and (or (<= (+ x5 0.153083054) x7) (or (<= (+ x7 0.0310145244) x5) (or (>= (- y5 0.2856268136) y7) (or (>= (- y7 0.1072268819) y5))))) 
(and (or (<= (+ x5 0.153083054) x8) (or (<= (+ x8 0.7758145252) x5) (or (>= (- y5 0.2856268136) y8) (or (>= (- y8 0.0673597034) y5))))) 
(and (or (<= (+ x6 0.2387093517) x7) (or (<= (+ x7 0.0310145244) x6) (or (>= (- y6 0.2713767247) y7) (or (>= (- y7 0.1072268819) y6))))) 
(and (or (<= (+ x6 0.2387093517) x8) (or (<= (+ x8 0.7758145252) x6) (or (>= (- y6 0.2713767247) y8) (or (>= (- y8 0.0673597034) y6))))) 
(and (or (<= (+ x7 0.0310145244) x8) (or (<= (+ x8 0.7758145252) x7) (or (>= (- y7 0.1072268819) y8) (or (>= (- y8 0.0673597034) y7))))) ))))))))))))))))))))))))))))))))))))))))))))))))))))))))))))))))))))))))))))))))))))))))))))))))))))))))
(minimize c)
(check-sat)
(get-objectives)
(exit)
